NAME: X143-FSMF
COMMENT: Generated by Uchoa, Pecin, Pessoa, Poggi, Subramanian, and Vidal (2013). Modified by Sadykov, Pessoa and Uchoa (2017). Converted to PyVRP's VRPLIB dialect.
TYPE: HFVRP
DIMENSION: 143
VEHICLES: 1278
EDGE_WEIGHT_TYPE: EUC_2D
NODE_COORD_SECTION
1	0	0
2	175	821
3	62	495
4	662	959
5	109	216
6	156	748
7	178	957
8	347	184
9	89	814
10	257	265
11	662	892
12	881	69
13	478	9
14	76	79
15	898	650
16	711	766
17	325	163
18	42	411
19	722	221
20	366	190
21	378	521
22	907	497
23	924	738
24	954	524
25	594	724
26	253	89
27	746	971
28	655	716
29	627	301
30	994	958
31	384	833
32	234	979
33	337	173
34	865	383
35	488	878
36	531	291
37	289	151
38	935	667
39	659	800
40	965	898
41	248	436
42	97	623
43	953	932
44	30	810
45	683	120
46	577	83
47	376	751
48	804	302
49	265	688
50	425	392
51	392	371
52	438	417
53	373	511
54	19	913
55	415	49
56	663	461
57	583	355
58	569	522
59	312	683
60	288	508
61	177	874
62	609	113
63	905	309
64	701	895
65	640	112
66	504	95
67	466	606
68	367	726
69	161	8
70	944	892
71	223	393
72	329	371
73	130	888
74	450	443
75	857	128
76	709	966
77	642	967
78	872	705
79	0	414
80	207	911
81	993	855
82	883	147
83	740	490
84	600	372
85	184	48
86	489	259
87	114	737
88	244	783
89	420	439
90	522	41
91	617	177
92	575	340
93	607	806
94	144	513
95	695	974
96	603	507
97	855	318
98	343	206
99	244	929
100	418	513
101	976	38
102	435	672
103	120	988
104	691	853
105	986	418
106	566	975
107	625	733
108	166	787
109	605	798
110	209	194
111	19	892
112	169	840
113	756	913
114	666	928
115	13	829
116	103	304
117	63	384
118	564	787
119	271	50
120	949	738
121	357	228
122	363	898
123	912	704
124	765	462
125	167	348
126	848	405
127	5	76
128	188	65
129	229	41
130	632	968
131	75	96
132	936	903
133	982	492
134	658	258
135	600	833
136	299	593
137	65	277
138	695	468
139	508	995
140	651	522
141	824	865
142	842	802
143	684	432
DEMAND_SECTION
1	0
2	95
3	35
4	81
5	12
6	3
7	99
8	47
9	64
10	20
11	47
12	27
13	77
14	50
15	75
16	14
17	24
18	3
19	58
20	65
21	98
22	35
23	35
24	45
25	52
26	11
27	13
28	11
29	76
30	98
31	5
32	9
33	87
34	71
35	83
36	2
37	54
38	63
39	63
40	21
41	36
42	17
43	15
44	44
45	62
46	87
47	90
48	92
49	18
50	41
51	85
52	62
53	72
54	9
55	18
56	76
57	17
58	42
59	43
60	55
61	42
62	2
63	78
64	25
65	29
66	78
67	67
68	40
69	71
70	21
71	57
72	35
73	17
74	14
75	11
76	3
77	45
78	54
79	39
80	96
81	56
82	73
83	55
84	53
85	92
86	71
87	63
88	47
89	86
90	86
91	58
92	68
93	27
94	77
95	67
96	19
97	60
98	42
99	3
100	47
101	4
102	57
103	44
104	90
105	97
106	37
107	49
108	58
109	67
110	30
111	85
112	31
113	28
114	26
115	86
116	90
117	99
118	99
119	35
120	62
121	49
122	71
123	74
124	3
125	71
126	99
127	38
128	96
129	71
130	92
131	6
132	77
133	94
134	47
135	92
136	90
137	67
138	16
139	47
140	61
141	68
142	93
143	96
CAPACITY_SECTION
1	413
2	413
3	413
4	413
5	413
6	413
7	413
8	413
9	413
10	413
11	413
12	413
13	413
14	413
15	413
16	413
17	413
18	413
19	413
20	413
21	413
22	413
23	413
24	413
25	413
26	413
27	413
28	413
29	413
30	413
31	413
32	413
33	413
34	413
35	413
36	413
37	413
38	413
39	413
40	413
41	413
42	413
43	413
44	413
45	413
46	413
47	413
48	413
49	413
50	413
51	413
52	413
53	413
54	413
55	413
56	413
57	413
58	413
59	413
60	413
61	413
62	413
63	413
64	413
65	413
66	413
67	413
68	413
69	413
70	413
71	413
72	413
73	413
74	413
75	413
76	413
77	413
78	413
79	413
80	413
81	413
82	413
83	413
84	413
85	413
86	413
87	413
88	413
89	413
90	413
91	413
92	413
93	413
94	413
95	413
96	413
97	413
98	413
99	413
100	413
101	413
102	413
103	413
104	413
105	413
106	413
107	413
108	413
109	413
110	413
111	413
112	413
113	413
114	413
115	413
116	413
117	413
118	413
119	413
120	413
121	413
122	413
123	413
124	413
125	413
126	413
127	413
128	413
129	413
130	413
131	413
132	413
133	413
134	413
135	413
136	413
137	413
138	413
139	413
140	413
141	413
142	413
143	517
144	517
145	517
146	517
147	517
148	517
149	517
150	517
151	517
152	517
153	517
154	517
155	517
156	517
157	517
158	517
159	517
160	517
161	517
162	517
163	517
164	517
165	517
166	517
167	517
168	517
169	517
170	517
171	517
172	517
173	517
174	517
175	517
176	517
177	517
178	517
179	517
180	517
181	517
182	517
183	517
184	517
185	517
186	517
187	517
188	517
189	517
190	517
191	517
192	517
193	517
194	517
195	517
196	517
197	517
198	517
199	517
200	517
201	517
202	517
203	517
204	517
205	517
206	517
207	517
208	517
209	517
210	517
211	517
212	517
213	517
214	517
215	517
216	517
217	517
218	517
219	517
220	517
221	517
222	517
223	517
224	517
225	517
226	517
227	517
228	517
229	517
230	517
231	517
232	517
233	517
234	517
235	517
236	517
237	517
238	517
239	517
240	517
241	517
242	517
243	517
244	517
245	517
246	517
247	517
248	517
249	517
250	517
251	517
252	517
253	517
254	517
255	517
256	517
257	517
258	517
259	517
260	517
261	517
262	517
263	517
264	517
265	517
266	517
267	517
268	517
269	517
270	517
271	517
272	517
273	517
274	517
275	517
276	517
277	517
278	517
279	517
280	517
281	517
282	517
283	517
284	517
285	647
286	647
287	647
288	647
289	647
290	647
291	647
292	647
293	647
294	647
295	647
296	647
297	647
298	647
299	647
300	647
301	647
302	647
303	647
304	647
305	647
306	647
307	647
308	647
309	647
310	647
311	647
312	647
313	647
314	647
315	647
316	647
317	647
318	647
319	647
320	647
321	647
322	647
323	647
324	647
325	647
326	647
327	647
328	647
329	647
330	647
331	647
332	647
333	647
334	647
335	647
336	647
337	647
338	647
339	647
340	647
341	647
342	647
343	647
344	647
345	647
346	647
347	647
348	647
349	647
350	647
351	647
352	647
353	647
354	647
355	647
356	647
357	647
358	647
359	647
360	647
361	647
362	647
363	647
364	647
365	647
366	647
367	647
368	647
369	647
370	647
371	647
372	647
373	647
374	647
375	647
376	647
377	647
378	647
379	647
380	647
381	647
382	647
383	647
384	647
385	647
386	647
387	647
388	647
389	647
390	647
391	647
392	647
393	647
394	647
395	647
396	647
397	647
398	647
399	647
400	647
401	647
402	647
403	647
404	647
405	647
406	647
407	647
408	647
409	647
410	647
411	647
412	647
413	647
414	647
415	647
416	647
417	647
418	647
419	647
420	647
421	647
422	647
423	647
424	647
425	647
426	647
427	809
428	809
429	809
430	809
431	809
432	809
433	809
434	809
435	809
436	809
437	809
438	809
439	809
440	809
441	809
442	809
443	809
444	809
445	809
446	809
447	809
448	809
449	809
450	809
451	809
452	809
453	809
454	809
455	809
456	809
457	809
458	809
459	809
460	809
461	809
462	809
463	809
464	809
465	809
466	809
467	809
468	809
469	809
470	809
471	809
472	809
473	809
474	809
475	809
476	809
477	809
478	809
479	809
480	809
481	809
482	809
483	809
484	809
485	809
486	809
487	809
488	809
489	809
490	809
491	809
492	809
493	809
494	809
495	809
496	809
497	809
498	809
499	809
500	809
501	809
502	809
503	809
504	809
505	809
506	809
507	809
508	809
509	809
510	809
511	809
512	809
513	809
514	809
515	809
516	809
517	809
518	809
519	809
520	809
521	809
522	809
523	809
524	809
525	809
526	809
527	809
528	809
529	809
530	809
531	809
532	809
533	809
534	809
535	809
536	809
537	809
538	809
539	809
540	809
541	809
542	809
543	809
544	809
545	809
546	809
547	809
548	809
549	809
550	809
551	809
552	809
553	809
554	809
555	809
556	809
557	809
558	809
559	809
560	809
561	809
562	809
563	809
564	809
565	809
566	809
567	809
568	809
569	1012
570	1012
571	1012
572	1012
573	1012
574	1012
575	1012
576	1012
577	1012
578	1012
579	1012
580	1012
581	1012
582	1012
583	1012
584	1012
585	1012
586	1012
587	1012
588	1012
589	1012
590	1012
591	1012
592	1012
593	1012
594	1012
595	1012
596	1012
597	1012
598	1012
599	1012
600	1012
601	1012
602	1012
603	1012
604	1012
605	1012
606	1012
607	1012
608	1012
609	1012
610	1012
611	1012
612	1012
613	1012
614	1012
615	1012
616	1012
617	1012
618	1012
619	1012
620	1012
621	1012
622	1012
623	1012
624	1012
625	1012
626	1012
627	1012
628	1012
629	1012
630	1012
631	1012
632	1012
633	1012
634	1012
635	1012
636	1012
637	1012
638	1012
639	1012
640	1012
641	1012
642	1012
643	1012
644	1012
645	1012
646	1012
647	1012
648	1012
649	1012
650	1012
651	1012
652	1012
653	1012
654	1012
655	1012
656	1012
657	1012
658	1012
659	1012
660	1012
661	1012
662	1012
663	1012
664	1012
665	1012
666	1012
667	1012
668	1012
669	1012
670	1012
671	1012
672	1012
673	1012
674	1012
675	1012
676	1012
677	1012
678	1012
679	1012
680	1012
681	1012
682	1012
683	1012
684	1012
685	1012
686	1012
687	1012
688	1012
689	1012
690	1012
691	1012
692	1012
693	1012
694	1012
695	1012
696	1012
697	1012
698	1012
699	1012
700	1012
701	1012
702	1012
703	1012
704	1012
705	1012
706	1012
707	1012
708	1012
709	1012
710	1012
711	1266
712	1266
713	1266
714	1266
715	1266
716	1266
717	1266
718	1266
719	1266
720	1266
721	1266
722	1266
723	1266
724	1266
725	1266
726	1266
727	1266
728	1266
729	1266
730	1266
731	1266
732	1266
733	1266
734	1266
735	1266
736	1266
737	1266
738	1266
739	1266
740	1266
741	1266
742	1266
743	1266
744	1266
745	1266
746	1266
747	1266
748	1266
749	1266
750	1266
751	1266
752	1266
753	1266
754	1266
755	1266
756	1266
757	1266
758	1266
759	1266
760	1266
761	1266
762	1266
763	1266
764	1266
765	1266
766	1266
767	1266
768	1266
769	1266
770	1266
771	1266
772	1266
773	1266
774	1266
775	1266
776	1266
777	1266
778	1266
779	1266
780	1266
781	1266
782	1266
783	1266
784	1266
785	1266
786	1266
787	1266
788	1266
789	1266
790	1266
791	1266
792	1266
793	1266
794	1266
795	1266
796	1266
797	1266
798	1266
799	1266
800	1266
801	1266
802	1266
803	1266
804	1266
805	1266
806	1266
807	1266
808	1266
809	1266
810	1266
811	1266
812	1266
813	1266
814	1266
815	1266
816	1266
817	1266
818	1266
819	1266
820	1266
821	1266
822	1266
823	1266
824	1266
825	1266
826	1266
827	1266
828	1266
829	1266
830	1266
831	1266
832	1266
833	1266
834	1266
835	1266
836	1266
837	1266
838	1266
839	1266
840	1266
841	1266
842	1266
843	1266
844	1266
845	1266
846	1266
847	1266
848	1266
849	1266
850	1266
851	1266
852	1266
853	1584
854	1584
855	1584
856	1584
857	1584
858	1584
859	1584
860	1584
861	1584
862	1584
863	1584
864	1584
865	1584
866	1584
867	1584
868	1584
869	1584
870	1584
871	1584
872	1584
873	1584
874	1584
875	1584
876	1584
877	1584
878	1584
879	1584
880	1584
881	1584
882	1584
883	1584
884	1584
885	1584
886	1584
887	1584
888	1584
889	1584
890	1584
891	1584
892	1584
893	1584
894	1584
895	1584
896	1584
897	1584
898	1584
899	1584
900	1584
901	1584
902	1584
903	1584
904	1584
905	1584
906	1584
907	1584
908	1584
909	1584
910	1584
911	1584
912	1584
913	1584
914	1584
915	1584
916	1584
917	1584
918	1584
919	1584
920	1584
921	1584
922	1584
923	1584
924	1584
925	1584
926	1584
927	1584
928	1584
929	1584
930	1584
931	1584
932	1584
933	1584
934	1584
935	1584
936	1584
937	1584
938	1584
939	1584
940	1584
941	1584
942	1584
943	1584
944	1584
945	1584
946	1584
947	1584
948	1584
949	1584
950	1584
951	1584
952	1584
953	1584
954	1584
955	1584
956	1584
957	1584
958	1584
959	1584
960	1584
961	1584
962	1584
963	1584
964	1584
965	1584
966	1584
967	1584
968	1584
969	1584
970	1584
971	1584
972	1584
973	1584
974	1584
975	1584
976	1584
977	1584
978	1584
979	1584
980	1584
981	1584
982	1584
983	1584
984	1584
985	1584
986	1584
987	1584
988	1584
989	1584
990	1584
991	1584
992	1584
993	1584
994	1584
995	1982
996	1982
997	1982
998	1982
999	1982
1000	1982
1001	1982
1002	1982
1003	1982
1004	1982
1005	1982
1006	1982
1007	1982
1008	1982
1009	1982
1010	1982
1011	1982
1012	1982
1013	1982
1014	1982
1015	1982
1016	1982
1017	1982
1018	1982
1019	1982
1020	1982
1021	1982
1022	1982
1023	1982
1024	1982
1025	1982
1026	1982
1027	1982
1028	1982
1029	1982
1030	1982
1031	1982
1032	1982
1033	1982
1034	1982
1035	1982
1036	1982
1037	1982
1038	1982
1039	1982
1040	1982
1041	1982
1042	1982
1043	1982
1044	1982
1045	1982
1046	1982
1047	1982
1048	1982
1049	1982
1050	1982
1051	1982
1052	1982
1053	1982
1054	1982
1055	1982
1056	1982
1057	1982
1058	1982
1059	1982
1060	1982
1061	1982
1062	1982
1063	1982
1064	1982
1065	1982
1066	1982
1067	1982
1068	1982
1069	1982
1070	1982
1071	1982
1072	1982
1073	1982
1074	1982
1075	1982
1076	1982
1077	1982
1078	1982
1079	1982
1080	1982
1081	1982
1082	1982
1083	1982
1084	1982
1085	1982
1086	1982
1087	1982
1088	1982
1089	1982
1090	1982
1091	1982
1092	1982
1093	1982
1094	1982
1095	1982
1096	1982
1097	1982
1098	1982
1099	1982
1100	1982
1101	1982
1102	1982
1103	1982
1104	1982
1105	1982
1106	1982
1107	1982
1108	1982
1109	1982
1110	1982
1111	1982
1112	1982
1113	1982
1114	1982
1115	1982
1116	1982
1117	1982
1118	1982
1119	1982
1120	1982
1121	1982
1122	1982
1123	1982
1124	1982
1125	1982
1126	1982
1127	1982
1128	1982
1129	1982
1130	1982
1131	1982
1132	1982
1133	1982
1134	1982
1135	1982
1136	1982
1137	2479
1138	2479
1139	2479
1140	2479
1141	2479
1142	2479
1143	2479
1144	2479
1145	2479
1146	2479
1147	2479
1148	2479
1149	2479
1150	2479
1151	2479
1152	2479
1153	2479
1154	2479
1155	2479
1156	2479
1157	2479
1158	2479
1159	2479
1160	2479
1161	2479
1162	2479
1163	2479
1164	2479
1165	2479
1166	2479
1167	2479
1168	2479
1169	2479
1170	2479
1171	2479
1172	2479
1173	2479
1174	2479
1175	2479
1176	2479
1177	2479
1178	2479
1179	2479
1180	2479
1181	2479
1182	2479
1183	2479
1184	2479
1185	2479
1186	2479
1187	2479
1188	2479
1189	2479
1190	2479
1191	2479
1192	2479
1193	2479
1194	2479
1195	2479
1196	2479
1197	2479
1198	2479
1199	2479
1200	2479
1201	2479
1202	2479
1203	2479
1204	2479
1205	2479
1206	2479
1207	2479
1208	2479
1209	2479
1210	2479
1211	2479
1212	2479
1213	2479
1214	2479
1215	2479
1216	2479
1217	2479
1218	2479
1219	2479
1220	2479
1221	2479
1222	2479
1223	2479
1224	2479
1225	2479
1226	2479
1227	2479
1228	2479
1229	2479
1230	2479
1231	2479
1232	2479
1233	2479
1234	2479
1235	2479
1236	2479
1237	2479
1238	2479
1239	2479
1240	2479
1241	2479
1242	2479
1243	2479
1244	2479
1245	2479
1246	2479
1247	2479
1248	2479
1249	2479
1250	2479
1251	2479
1252	2479
1253	2479
1254	2479
1255	2479
1256	2479
1257	2479
1258	2479
1259	2479
1260	2479
1261	2479
1262	2479
1263	2479
1264	2479
1265	2479
1266	2479
1267	2479
1268	2479
1269	2479
1270	2479
1271	2479
1272	2479
1273	2479
1274	2479
1275	2479
1276	2479
1277	2479
1278	2479
VEHICLES_UNIT_DISTANCE_COST_SECTION
1	100
2	100
3	100
4	100
5	100
6	100
7	100
8	100
9	100
10	100
11	100
12	100
13	100
14	100
15	100
16	100
17	100
18	100
19	100
20	100
21	100
22	100
23	100
24	100
25	100
26	100
27	100
28	100
29	100
30	100
31	100
32	100
33	100
34	100
35	100
36	100
37	100
38	100
39	100
40	100
41	100
42	100
43	100
44	100
45	100
46	100
47	100
48	100
49	100
50	100
51	100
52	100
53	100
54	100
55	100
56	100
57	100
58	100
59	100
60	100
61	100
62	100
63	100
64	100
65	100
66	100
67	100
68	100
69	100
70	100
71	100
72	100
73	100
74	100
75	100
76	100
77	100
78	100
79	100
80	100
81	100
82	100
83	100
84	100
85	100
86	100
87	100
88	100
89	100
90	100
91	100
92	100
93	100
94	100
95	100
96	100
97	100
98	100
99	100
100	100
101	100
102	100
103	100
104	100
105	100
106	100
107	100
108	100
109	100
110	100
111	100
112	100
113	100
114	100
115	100
116	100
117	100
118	100
119	100
120	100
121	100
122	100
123	100
124	100
125	100
126	100
127	100
128	100
129	100
130	100
131	100
132	100
133	100
134	100
135	100
136	100
137	100
138	100
139	100
140	100
141	100
142	100
143	100
144	100
145	100
146	100
147	100
148	100
149	100
150	100
151	100
152	100
153	100
154	100
155	100
156	100
157	100
158	100
159	100
160	100
161	100
162	100
163	100
164	100
165	100
166	100
167	100
168	100
169	100
170	100
171	100
172	100
173	100
174	100
175	100
176	100
177	100
178	100
179	100
180	100
181	100
182	100
183	100
184	100
185	100
186	100
187	100
188	100
189	100
190	100
191	100
192	100
193	100
194	100
195	100
196	100
197	100
198	100
199	100
200	100
201	100
202	100
203	100
204	100
205	100
206	100
207	100
208	100
209	100
210	100
211	100
212	100
213	100
214	100
215	100
216	100
217	100
218	100
219	100
220	100
221	100
222	100
223	100
224	100
225	100
226	100
227	100
228	100
229	100
230	100
231	100
232	100
233	100
234	100
235	100
236	100
237	100
238	100
239	100
240	100
241	100
242	100
243	100
244	100
245	100
246	100
247	100
248	100
249	100
250	100
251	100
252	100
253	100
254	100
255	100
256	100
257	100
258	100
259	100
260	100
261	100
262	100
263	100
264	100
265	100
266	100
267	100
268	100
269	100
270	100
271	100
272	100
273	100
274	100
275	100
276	100
277	100
278	100
279	100
280	100
281	100
282	100
283	100
284	100
285	100
286	100
287	100
288	100
289	100
290	100
291	100
292	100
293	100
294	100
295	100
296	100
297	100
298	100
299	100
300	100
301	100
302	100
303	100
304	100
305	100
306	100
307	100
308	100
309	100
310	100
311	100
312	100
313	100
314	100
315	100
316	100
317	100
318	100
319	100
320	100
321	100
322	100
323	100
324	100
325	100
326	100
327	100
328	100
329	100
330	100
331	100
332	100
333	100
334	100
335	100
336	100
337	100
338	100
339	100
340	100
341	100
342	100
343	100
344	100
345	100
346	100
347	100
348	100
349	100
350	100
351	100
352	100
353	100
354	100
355	100
356	100
357	100
358	100
359	100
360	100
361	100
362	100
363	100
364	100
365	100
366	100
367	100
368	100
369	100
370	100
371	100
372	100
373	100
374	100
375	100
376	100
377	100
378	100
379	100
380	100
381	100
382	100
383	100
384	100
385	100
386	100
387	100
388	100
389	100
390	100
391	100
392	100
393	100
394	100
395	100
396	100
397	100
398	100
399	100
400	100
401	100
402	100
403	100
404	100
405	100
406	100
407	100
408	100
409	100
410	100
411	100
412	100
413	100
414	100
415	100
416	100
417	100
418	100
419	100
420	100
421	100
422	100
423	100
424	100
425	100
426	100
427	100
428	100
429	100
430	100
431	100
432	100
433	100
434	100
435	100
436	100
437	100
438	100
439	100
440	100
441	100
442	100
443	100
444	100
445	100
446	100
447	100
448	100
449	100
450	100
451	100
452	100
453	100
454	100
455	100
456	100
457	100
458	100
459	100
460	100
461	100
462	100
463	100
464	100
465	100
466	100
467	100
468	100
469	100
470	100
471	100
472	100
473	100
474	100
475	100
476	100
477	100
478	100
479	100
480	100
481	100
482	100
483	100
484	100
485	100
486	100
487	100
488	100
489	100
490	100
491	100
492	100
493	100
494	100
495	100
496	100
497	100
498	100
499	100
500	100
501	100
502	100
503	100
504	100
505	100
506	100
507	100
508	100
509	100
510	100
511	100
512	100
513	100
514	100
515	100
516	100
517	100
518	100
519	100
520	100
521	100
522	100
523	100
524	100
525	100
526	100
527	100
528	100
529	100
530	100
531	100
532	100
533	100
534	100
535	100
536	100
537	100
538	100
539	100
540	100
541	100
542	100
543	100
544	100
545	100
546	100
547	100
548	100
549	100
550	100
551	100
552	100
553	100
554	100
555	100
556	100
557	100
558	100
559	100
560	100
561	100
562	100
563	100
564	100
565	100
566	100
567	100
568	100
569	100
570	100
571	100
572	100
573	100
574	100
575	100
576	100
577	100
578	100
579	100
580	100
581	100
582	100
583	100
584	100
585	100
586	100
587	100
588	100
589	100
590	100
591	100
592	100
593	100
594	100
595	100
596	100
597	100
598	100
599	100
600	100
601	100
602	100
603	100
604	100
605	100
606	100
607	100
608	100
609	100
610	100
611	100
612	100
613	100
614	100
615	100
616	100
617	100
618	100
619	100
620	100
621	100
622	100
623	100
624	100
625	100
626	100
627	100
628	100
629	100
630	100
631	100
632	100
633	100
634	100
635	100
636	100
637	100
638	100
639	100
640	100
641	100
642	100
643	100
644	100
645	100
646	100
647	100
648	100
649	100
650	100
651	100
652	100
653	100
654	100
655	100
656	100
657	100
658	100
659	100
660	100
661	100
662	100
663	100
664	100
665	100
666	100
667	100
668	100
669	100
670	100
671	100
672	100
673	100
674	100
675	100
676	100
677	100
678	100
679	100
680	100
681	100
682	100
683	100
684	100
685	100
686	100
687	100
688	100
689	100
690	100
691	100
692	100
693	100
694	100
695	100
696	100
697	100
698	100
699	100
700	100
701	100
702	100
703	100
704	100
705	100
706	100
707	100
708	100
709	100
710	100
711	100
712	100
713	100
714	100
715	100
716	100
717	100
718	100
719	100
720	100
721	100
722	100
723	100
724	100
725	100
726	100
727	100
728	100
729	100
730	100
731	100
732	100
733	100
734	100
735	100
736	100
737	100
738	100
739	100
740	100
741	100
742	100
743	100
744	100
745	100
746	100
747	100
748	100
749	100
750	100
751	100
752	100
753	100
754	100
755	100
756	100
757	100
758	100
759	100
760	100
761	100
762	100
763	100
764	100
765	100
766	100
767	100
768	100
769	100
770	100
771	100
772	100
773	100
774	100
775	100
776	100
777	100
778	100
779	100
780	100
781	100
782	100
783	100
784	100
785	100
786	100
787	100
788	100
789	100
790	100
791	100
792	100
793	100
794	100
795	100
796	100
797	100
798	100
799	100
800	100
801	100
802	100
803	100
804	100
805	100
806	100
807	100
808	100
809	100
810	100
811	100
812	100
813	100
814	100
815	100
816	100
817	100
818	100
819	100
820	100
821	100
822	100
823	100
824	100
825	100
826	100
827	100
828	100
829	100
830	100
831	100
832	100
833	100
834	100
835	100
836	100
837	100
838	100
839	100
840	100
841	100
842	100
843	100
844	100
845	100
846	100
847	100
848	100
849	100
850	100
851	100
852	100
853	100
854	100
855	100
856	100
857	100
858	100
859	100
860	100
861	100
862	100
863	100
864	100
865	100
866	100
867	100
868	100
869	100
870	100
871	100
872	100
873	100
874	100
875	100
876	100
877	100
878	100
879	100
880	100
881	100
882	100
883	100
884	100
885	100
886	100
887	100
888	100
889	100
890	100
891	100
892	100
893	100
894	100
895	100
896	100
897	100
898	100
899	100
900	100
901	100
902	100
903	100
904	100
905	100
906	100
907	100
908	100
909	100
910	100
911	100
912	100
913	100
914	100
915	100
916	100
917	100
918	100
919	100
920	100
921	100
922	100
923	100
924	100
925	100
926	100
927	100
928	100
929	100
930	100
931	100
932	100
933	100
934	100
935	100
936	100
937	100
938	100
939	100
940	100
941	100
942	100
943	100
944	100
945	100
946	100
947	100
948	100
949	100
950	100
951	100
952	100
953	100
954	100
955	100
956	100
957	100
958	100
959	100
960	100
961	100
962	100
963	100
964	100
965	100
966	100
967	100
968	100
969	100
970	100
971	100
972	100
973	100
974	100
975	100
976	100
977	100
978	100
979	100
980	100
981	100
982	100
983	100
984	100
985	100
986	100
987	100
988	100
989	100
990	100
991	100
992	100
993	100
994	100
995	100
996	100
997	100
998	100
999	100
1000	100
1001	100
1002	100
1003	100
1004	100
1005	100
1006	100
1007	100
1008	100
1009	100
1010	100
1011	100
1012	100
1013	100
1014	100
1015	100
1016	100
1017	100
1018	100
1019	100
1020	100
1021	100
1022	100
1023	100
1024	100
1025	100
1026	100
1027	100
1028	100
1029	100
1030	100
1031	100
1032	100
1033	100
1034	100
1035	100
1036	100
1037	100
1038	100
1039	100
1040	100
1041	100
1042	100
1043	100
1044	100
1045	100
1046	100
1047	100
1048	100
1049	100
1050	100
1051	100
1052	100
1053	100
1054	100
1055	100
1056	100
1057	100
1058	100
1059	100
1060	100
1061	100
1062	100
1063	100
1064	100
1065	100
1066	100
1067	100
1068	100
1069	100
1070	100
1071	100
1072	100
1073	100
1074	100
1075	100
1076	100
1077	100
1078	100
1079	100
1080	100
1081	100
1082	100
1083	100
1084	100
1085	100
1086	100
1087	100
1088	100
1089	100
1090	100
1091	100
1092	100
1093	100
1094	100
1095	100
1096	100
1097	100
1098	100
1099	100
1100	100
1101	100
1102	100
1103	100
1104	100
1105	100
1106	100
1107	100
1108	100
1109	100
1110	100
1111	100
1112	100
1113	100
1114	100
1115	100
1116	100
1117	100
1118	100
1119	100
1120	100
1121	100
1122	100
1123	100
1124	100
1125	100
1126	100
1127	100
1128	100
1129	100
1130	100
1131	100
1132	100
1133	100
1134	100
1135	100
1136	100
1137	100
1138	100
1139	100
1140	100
1141	100
1142	100
1143	100
1144	100
1145	100
1146	100
1147	100
1148	100
1149	100
1150	100
1151	100
1152	100
1153	100
1154	100
1155	100
1156	100
1157	100
1158	100
1159	100
1160	100
1161	100
1162	100
1163	100
1164	100
1165	100
1166	100
1167	100
1168	100
1169	100
1170	100
1171	100
1172	100
1173	100
1174	100
1175	100
1176	100
1177	100
1178	100
1179	100
1180	100
1181	100
1182	100
1183	100
1184	100
1185	100
1186	100
1187	100
1188	100
1189	100
1190	100
1191	100
1192	100
1193	100
1194	100
1195	100
1196	100
1197	100
1198	100
1199	100
1200	100
1201	100
1202	100
1203	100
1204	100
1205	100
1206	100
1207	100
1208	100
1209	100
1210	100
1211	100
1212	100
1213	100
1214	100
1215	100
1216	100
1217	100
1218	100
1219	100
1220	100
1221	100
1222	100
1223	100
1224	100
1225	100
1226	100
1227	100
1228	100
1229	100
1230	100
1231	100
1232	100
1233	100
1234	100
1235	100
1236	100
1237	100
1238	100
1239	100
1240	100
1241	100
1242	100
1243	100
1244	100
1245	100
1246	100
1247	100
1248	100
1249	100
1250	100
1251	100
1252	100
1253	100
1254	100
1255	100
1256	100
1257	100
1258	100
1259	100
1260	100
1261	100
1262	100
1263	100
1264	100
1265	100
1266	100
1267	100
1268	100
1269	100
1270	100
1271	100
1272	100
1273	100
1274	100
1275	100
1276	100
1277	100
1278	100
DEPOT_SECTION
1
EOF
